c Arquivo CNF gerado para o Mundo dos Blocos
p cnf 198 1708
1 2 3 4 5 6 0
-1 -2 0
-1 -3 0
-1 -4 0
-1 -5 0
-1 -6 0
-2 -3 0
-2 -4 0
-2 -5 0
-2 -6 0
-3 -4 0
-3 -5 0
-3 -6 0
-4 -5 0
-4 -6 0
-5 -6 0
7 8 9 0
-7 -8 0
-7 -9 0
-8 -9 0
10 11 12 13 14 15 0
-10 -11 0
-10 -12 0
-10 -13 0
-10 -14 0
-10 -15 0
-11 -12 0
-11 -13 0
-11 -14 0
-11 -15 0
-12 -13 0
-12 -14 0
-12 -15 0
-13 -14 0
-13 -15 0
-14 -15 0
16 17 18 0
-16 -17 0
-16 -18 0
-17 -18 0
19 20 21 22 23 0
-19 -20 0
-19 -21 0
-19 -22 0
-19 -23 0
-20 -21 0
-20 -22 0
-20 -23 0
-21 -22 0
-21 -23 0
-22 -23 0
24 25 26 0
-24 -25 0
-24 -26 0
-25 -26 0
27 28 29 30 0
-27 -28 0
-27 -29 0
-27 -30 0
-28 -29 0
-28 -30 0
-29 -30 0
31 32 33 0
-31 -32 0
-31 -33 0
-32 -33 0
-1 -7 -10 -16 0
-1 -7 -19 -24 0
-1 -7 -27 -31 0
-10 -16 -19 -24 0
-10 -16 -27 -31 0
-19 -24 -27 -31 0
-2 -7 -11 -16 0
-2 -7 -19 -24 0
-2 -7 -20 -24 0
-2 -7 -27 -31 0
-2 -7 -28 -31 0
-11 -16 -19 -24 0
-11 -16 -20 -24 0
-11 -16 -27 -31 0
-11 -16 -28 -31 0
-19 -24 -27 -31 0
-19 -24 -28 -31 0
-20 -24 -27 -31 0
-20 -24 -28 -31 0
-3 -7 -12 -16 0
-3 -7 -20 -24 0
-3 -7 -21 -24 0
-3 -7 -27 -31 0
-3 -7 -28 -31 0
-3 -7 -29 -31 0
-12 -16 -20 -24 0
-12 -16 -21 -24 0
-12 -16 -27 -31 0
-12 -16 -28 -31 0
-12 -16 -29 -31 0
-20 -24 -27 -31 0
-20 -24 -28 -31 0
-20 -24 -29 -31 0
-21 -24 -27 -31 0
-21 -24 -28 -31 0
-21 -24 -29 -31 0
-4 -7 -13 -16 0
-4 -7 -21 -24 0
-4 -7 -22 -24 0
-4 -7 -28 -31 0
-4 -7 -29 -31 0
-4 -7 -30 -31 0
-13 -16 -21 -24 0
-13 -16 -22 -24 0
-13 -16 -28 -31 0
-13 -16 -29 -31 0
-13 -16 -30 -31 0
-21 -24 -28 -31 0
-21 -24 -29 -31 0
-21 -24 -30 -31 0
-22 -24 -28 -31 0
-22 -24 -29 -31 0
-22 -24 -30 -31 0
-5 -7 -14 -16 0
-5 -7 -22 -24 0
-5 -7 -23 -24 0
-5 -7 -29 -31 0
-5 -7 -30 -31 0
-14 -16 -22 -24 0
-14 -16 -23 -24 0
-14 -16 -29 -31 0
-14 -16 -30 -31 0
-22 -24 -29 -31 0
-22 -24 -30 -31 0
-23 -24 -29 -31 0
-23 -24 -30 -31 0
-6 -7 -15 -16 0
-6 -7 -23 -24 0
-6 -7 -30 -31 0
-15 -16 -23 -24 0
-15 -16 -30 -31 0
-23 -24 -30 -31 0
-1 -8 -10 -17 0
-1 -8 -19 -25 0
-1 -8 -27 -32 0
-10 -17 -19 -25 0
-10 -17 -27 -32 0
-19 -25 -27 -32 0
-2 -8 -11 -17 0
-2 -8 -19 -25 0
-2 -8 -20 -25 0
-2 -8 -27 -32 0
-2 -8 -28 -32 0
-11 -17 -19 -25 0
-11 -17 -20 -25 0
-11 -17 -27 -32 0
-11 -17 -28 -32 0
-19 -25 -27 -32 0
-19 -25 -28 -32 0
-20 -25 -27 -32 0
-20 -25 -28 -32 0
-3 -8 -12 -17 0
-3 -8 -20 -25 0
-3 -8 -21 -25 0
-3 -8 -27 -32 0
-3 -8 -28 -32 0
-3 -8 -29 -32 0
-12 -17 -20 -25 0
-12 -17 -21 -25 0
-12 -17 -27 -32 0
-12 -17 -28 -32 0
-12 -17 -29 -32 0
-20 -25 -27 -32 0
-20 -25 -28 -32 0
-20 -25 -29 -32 0
-21 -25 -27 -32 0
-21 -25 -28 -32 0
-21 -25 -29 -32 0
-4 -8 -13 -17 0
-4 -8 -21 -25 0
-4 -8 -22 -25 0
-4 -8 -28 -32 0
-4 -8 -29 -32 0
-4 -8 -30 -32 0
-13 -17 -21 -25 0
-13 -17 -22 -25 0
-13 -17 -28 -32 0
-13 -17 -29 -32 0
-13 -17 -30 -32 0
-21 -25 -28 -32 0
-21 -25 -29 -32 0
-21 -25 -30 -32 0
-22 -25 -28 -32 0
-22 -25 -29 -32 0
-22 -25 -30 -32 0
-5 -8 -14 -17 0
-5 -8 -22 -25 0
-5 -8 -23 -25 0
-5 -8 -29 -32 0
-5 -8 -30 -32 0
-14 -17 -22 -25 0
-14 -17 -23 -25 0
-14 -17 -29 -32 0
-14 -17 -30 -32 0
-22 -25 -29 -32 0
-22 -25 -30 -32 0
-23 -25 -29 -32 0
-23 -25 -30 -32 0
-6 -8 -15 -17 0
-6 -8 -23 -25 0
-6 -8 -30 -32 0
-15 -17 -23 -25 0
-15 -17 -30 -32 0
-23 -25 -30 -32 0
-1 -9 -10 -18 0
-1 -9 -19 -26 0
-1 -9 -27 -33 0
-10 -18 -19 -26 0
-10 -18 -27 -33 0
-19 -26 -27 -33 0
-2 -9 -11 -18 0
-2 -9 -19 -26 0
-2 -9 -20 -26 0
-2 -9 -27 -33 0
-2 -9 -28 -33 0
-11 -18 -19 -26 0
-11 -18 -20 -26 0
-11 -18 -27 -33 0
-11 -18 -28 -33 0
-19 -26 -27 -33 0
-19 -26 -28 -33 0
-20 -26 -27 -33 0
-20 -26 -28 -33 0
-3 -9 -12 -18 0
-3 -9 -20 -26 0
-3 -9 -21 -26 0
-3 -9 -27 -33 0
-3 -9 -28 -33 0
-3 -9 -29 -33 0
-12 -18 -20 -26 0
-12 -18 -21 -26 0
-12 -18 -27 -33 0
-12 -18 -28 -33 0
-12 -18 -29 -33 0
-20 -26 -27 -33 0
-20 -26 -28 -33 0
-20 -26 -29 -33 0
-21 -26 -27 -33 0
-21 -26 -28 -33 0
-21 -26 -29 -33 0
-4 -9 -13 -18 0
-4 -9 -21 -26 0
-4 -9 -22 -26 0
-4 -9 -28 -33 0
-4 -9 -29 -33 0
-4 -9 -30 -33 0
-13 -18 -21 -26 0
-13 -18 -22 -26 0
-13 -18 -28 -33 0
-13 -18 -29 -33 0
-13 -18 -30 -33 0
-21 -26 -28 -33 0
-21 -26 -29 -33 0
-21 -26 -30 -33 0
-22 -26 -28 -33 0
-22 -26 -29 -33 0
-22 -26 -30 -33 0
-5 -9 -14 -18 0
-5 -9 -22 -26 0
-5 -9 -23 -26 0
-5 -9 -29 -33 0
-5 -9 -30 -33 0
-14 -18 -22 -26 0
-14 -18 -23 -26 0
-14 -18 -29 -33 0
-14 -18 -30 -33 0
-22 -26 -29 -33 0
-22 -26 -30 -33 0
-23 -26 -29 -33 0
-23 -26 -30 -33 0
-6 -9 -15 -18 0
-6 -9 -23 -26 0
-6 -9 -30 -33 0
-15 -18 -23 -26 0
-15 -18 -30 -33 0
-23 -26 -30 -33 0
34 35 36 37 38 39 0
-34 -35 0
-34 -36 0
-34 -37 0
-34 -38 0
-34 -39 0
-35 -36 0
-35 -37 0
-35 -38 0
-35 -39 0
-36 -37 0
-36 -38 0
-36 -39 0
-37 -38 0
-37 -39 0
-38 -39 0
40 41 42 0
-40 -41 0
-40 -42 0
-41 -42 0
43 44 45 46 47 48 0
-43 -44 0
-43 -45 0
-43 -46 0
-43 -47 0
-43 -48 0
-44 -45 0
-44 -46 0
-44 -47 0
-44 -48 0
-45 -46 0
-45 -47 0
-45 -48 0
-46 -47 0
-46 -48 0
-47 -48 0
49 50 51 0
-49 -50 0
-49 -51 0
-50 -51 0
52 53 54 55 56 0
-52 -53 0
-52 -54 0
-52 -55 0
-52 -56 0
-53 -54 0
-53 -55 0
-53 -56 0
-54 -55 0
-54 -56 0
-55 -56 0
57 58 59 0
-57 -58 0
-57 -59 0
-58 -59 0
60 61 62 63 0
-60 -61 0
-60 -62 0
-60 -63 0
-61 -62 0
-61 -63 0
-62 -63 0
64 65 66 0
-64 -65 0
-64 -66 0
-65 -66 0
-34 -40 -43 -49 0
-34 -40 -52 -57 0
-34 -40 -60 -64 0
-43 -49 -52 -57 0
-43 -49 -60 -64 0
-52 -57 -60 -64 0
-35 -40 -44 -49 0
-35 -40 -52 -57 0
-35 -40 -53 -57 0
-35 -40 -60 -64 0
-35 -40 -61 -64 0
-44 -49 -52 -57 0
-44 -49 -53 -57 0
-44 -49 -60 -64 0
-44 -49 -61 -64 0
-52 -57 -60 -64 0
-52 -57 -61 -64 0
-53 -57 -60 -64 0
-53 -57 -61 -64 0
-36 -40 -45 -49 0
-36 -40 -53 -57 0
-36 -40 -54 -57 0
-36 -40 -60 -64 0
-36 -40 -61 -64 0
-36 -40 -62 -64 0
-45 -49 -53 -57 0
-45 -49 -54 -57 0
-45 -49 -60 -64 0
-45 -49 -61 -64 0
-45 -49 -62 -64 0
-53 -57 -60 -64 0
-53 -57 -61 -64 0
-53 -57 -62 -64 0
-54 -57 -60 -64 0
-54 -57 -61 -64 0
-54 -57 -62 -64 0
-37 -40 -46 -49 0
-37 -40 -54 -57 0
-37 -40 -55 -57 0
-37 -40 -61 -64 0
-37 -40 -62 -64 0
-37 -40 -63 -64 0
-46 -49 -54 -57 0
-46 -49 -55 -57 0
-46 -49 -61 -64 0
-46 -49 -62 -64 0
-46 -49 -63 -64 0
-54 -57 -61 -64 0
-54 -57 -62 -64 0
-54 -57 -63 -64 0
-55 -57 -61 -64 0
-55 -57 -62 -64 0
-55 -57 -63 -64 0
-38 -40 -47 -49 0
-38 -40 -55 -57 0
-38 -40 -56 -57 0
-38 -40 -62 -64 0
-38 -40 -63 -64 0
-47 -49 -55 -57 0
-47 -49 -56 -57 0
-47 -49 -62 -64 0
-47 -49 -63 -64 0
-55 -57 -62 -64 0
-55 -57 -63 -64 0
-56 -57 -62 -64 0
-56 -57 -63 -64 0
-39 -40 -48 -49 0
-39 -40 -56 -57 0
-39 -40 -63 -64 0
-48 -49 -56 -57 0
-48 -49 -63 -64 0
-56 -57 -63 -64 0
-34 -41 -43 -50 0
-34 -41 -52 -58 0
-34 -41 -60 -65 0
-43 -50 -52 -58 0
-43 -50 -60 -65 0
-52 -58 -60 -65 0
-35 -41 -44 -50 0
-35 -41 -52 -58 0
-35 -41 -53 -58 0
-35 -41 -60 -65 0
-35 -41 -61 -65 0
-44 -50 -52 -58 0
-44 -50 -53 -58 0
-44 -50 -60 -65 0
-44 -50 -61 -65 0
-52 -58 -60 -65 0
-52 -58 -61 -65 0
-53 -58 -60 -65 0
-53 -58 -61 -65 0
-36 -41 -45 -50 0
-36 -41 -53 -58 0
-36 -41 -54 -58 0
-36 -41 -60 -65 0
-36 -41 -61 -65 0
-36 -41 -62 -65 0
-45 -50 -53 -58 0
-45 -50 -54 -58 0
-45 -50 -60 -65 0
-45 -50 -61 -65 0
-45 -50 -62 -65 0
-53 -58 -60 -65 0
-53 -58 -61 -65 0
-53 -58 -62 -65 0
-54 -58 -60 -65 0
-54 -58 -61 -65 0
-54 -58 -62 -65 0
-37 -41 -46 -50 0
-37 -41 -54 -58 0
-37 -41 -55 -58 0
-37 -41 -61 -65 0
-37 -41 -62 -65 0
-37 -41 -63 -65 0
-46 -50 -54 -58 0
-46 -50 -55 -58 0
-46 -50 -61 -65 0
-46 -50 -62 -65 0
-46 -50 -63 -65 0
-54 -58 -61 -65 0
-54 -58 -62 -65 0
-54 -58 -63 -65 0
-55 -58 -61 -65 0
-55 -58 -62 -65 0
-55 -58 -63 -65 0
-38 -41 -47 -50 0
-38 -41 -55 -58 0
-38 -41 -56 -58 0
-38 -41 -62 -65 0
-38 -41 -63 -65 0
-47 -50 -55 -58 0
-47 -50 -56 -58 0
-47 -50 -62 -65 0
-47 -50 -63 -65 0
-55 -58 -62 -65 0
-55 -58 -63 -65 0
-56 -58 -62 -65 0
-56 -58 -63 -65 0
-39 -41 -48 -50 0
-39 -41 -56 -58 0
-39 -41 -63 -65 0
-48 -50 -56 -58 0
-48 -50 -63 -65 0
-56 -58 -63 -65 0
-34 -42 -43 -51 0
-34 -42 -52 -59 0
-34 -42 -60 -66 0
-43 -51 -52 -59 0
-43 -51 -60 -66 0
-52 -59 -60 -66 0
-35 -42 -44 -51 0
-35 -42 -52 -59 0
-35 -42 -53 -59 0
-35 -42 -60 -66 0
-35 -42 -61 -66 0
-44 -51 -52 -59 0
-44 -51 -53 -59 0
-44 -51 -60 -66 0
-44 -51 -61 -66 0
-52 -59 -60 -66 0
-52 -59 -61 -66 0
-53 -59 -60 -66 0
-53 -59 -61 -66 0
-36 -42 -45 -51 0
-36 -42 -53 -59 0
-36 -42 -54 -59 0
-36 -42 -60 -66 0
-36 -42 -61 -66 0
-36 -42 -62 -66 0
-45 -51 -53 -59 0
-45 -51 -54 -59 0
-45 -51 -60 -66 0
-45 -51 -61 -66 0
-45 -51 -62 -66 0
-53 -59 -60 -66 0
-53 -59 -61 -66 0
-53 -59 -62 -66 0
-54 -59 -60 -66 0
-54 -59 -61 -66 0
-54 -59 -62 -66 0
-37 -42 -46 -51 0
-37 -42 -54 -59 0
-37 -42 -55 -59 0
-37 -42 -61 -66 0
-37 -42 -62 -66 0
-37 -42 -63 -66 0
-46 -51 -54 -59 0
-46 -51 -55 -59 0
-46 -51 -61 -66 0
-46 -51 -62 -66 0
-46 -51 -63 -66 0
-54 -59 -61 -66 0
-54 -59 -62 -66 0
-54 -59 -63 -66 0
-55 -59 -61 -66 0
-55 -59 -62 -66 0
-55 -59 -63 -66 0
-38 -42 -47 -51 0
-38 -42 -55 -59 0
-38 -42 -56 -59 0
-38 -42 -62 -66 0
-38 -42 -63 -66 0
-47 -51 -55 -59 0
-47 -51 -56 -59 0
-47 -51 -62 -66 0
-47 -51 -63 -66 0
-55 -59 -62 -66 0
-55 -59 -63 -66 0
-56 -59 -62 -66 0
-56 -59 -63 -66 0
-39 -42 -48 -51 0
-39 -42 -56 -59 0
-39 -42 -63 -66 0
-48 -51 -56 -59 0
-48 -51 -63 -66 0
-56 -59 -63 -66 0
67 68 69 70 71 72 0
-67 -68 0
-67 -69 0
-67 -70 0
-67 -71 0
-67 -72 0
-68 -69 0
-68 -70 0
-68 -71 0
-68 -72 0
-69 -70 0
-69 -71 0
-69 -72 0
-70 -71 0
-70 -72 0
-71 -72 0
73 74 75 0
-73 -74 0
-73 -75 0
-74 -75 0
76 77 78 79 80 81 0
-76 -77 0
-76 -78 0
-76 -79 0
-76 -80 0
-76 -81 0
-77 -78 0
-77 -79 0
-77 -80 0
-77 -81 0
-78 -79 0
-78 -80 0
-78 -81 0
-79 -80 0
-79 -81 0
-80 -81 0
82 83 84 0
-82 -83 0
-82 -84 0
-83 -84 0
85 86 87 88 89 0
-85 -86 0
-85 -87 0
-85 -88 0
-85 -89 0
-86 -87 0
-86 -88 0
-86 -89 0
-87 -88 0
-87 -89 0
-88 -89 0
90 91 92 0
-90 -91 0
-90 -92 0
-91 -92 0
93 94 95 96 0
-93 -94 0
-93 -95 0
-93 -96 0
-94 -95 0
-94 -96 0
-95 -96 0
97 98 99 0
-97 -98 0
-97 -99 0
-98 -99 0
-67 -73 -76 -82 0
-67 -73 -85 -90 0
-67 -73 -93 -97 0
-76 -82 -85 -90 0
-76 -82 -93 -97 0
-85 -90 -93 -97 0
-68 -73 -77 -82 0
-68 -73 -85 -90 0
-68 -73 -86 -90 0
-68 -73 -93 -97 0
-68 -73 -94 -97 0
-77 -82 -85 -90 0
-77 -82 -86 -90 0
-77 -82 -93 -97 0
-77 -82 -94 -97 0
-85 -90 -93 -97 0
-85 -90 -94 -97 0
-86 -90 -93 -97 0
-86 -90 -94 -97 0
-69 -73 -78 -82 0
-69 -73 -86 -90 0
-69 -73 -87 -90 0
-69 -73 -93 -97 0
-69 -73 -94 -97 0
-69 -73 -95 -97 0
-78 -82 -86 -90 0
-78 -82 -87 -90 0
-78 -82 -93 -97 0
-78 -82 -94 -97 0
-78 -82 -95 -97 0
-86 -90 -93 -97 0
-86 -90 -94 -97 0
-86 -90 -95 -97 0
-87 -90 -93 -97 0
-87 -90 -94 -97 0
-87 -90 -95 -97 0
-70 -73 -79 -82 0
-70 -73 -87 -90 0
-70 -73 -88 -90 0
-70 -73 -94 -97 0
-70 -73 -95 -97 0
-70 -73 -96 -97 0
-79 -82 -87 -90 0
-79 -82 -88 -90 0
-79 -82 -94 -97 0
-79 -82 -95 -97 0
-79 -82 -96 -97 0
-87 -90 -94 -97 0
-87 -90 -95 -97 0
-87 -90 -96 -97 0
-88 -90 -94 -97 0
-88 -90 -95 -97 0
-88 -90 -96 -97 0
-71 -73 -80 -82 0
-71 -73 -88 -90 0
-71 -73 -89 -90 0
-71 -73 -95 -97 0
-71 -73 -96 -97 0
-80 -82 -88 -90 0
-80 -82 -89 -90 0
-80 -82 -95 -97 0
-80 -82 -96 -97 0
-88 -90 -95 -97 0
-88 -90 -96 -97 0
-89 -90 -95 -97 0
-89 -90 -96 -97 0
-72 -73 -81 -82 0
-72 -73 -89 -90 0
-72 -73 -96 -97 0
-81 -82 -89 -90 0
-81 -82 -96 -97 0
-89 -90 -96 -97 0
-67 -74 -76 -83 0
-67 -74 -85 -91 0
-67 -74 -93 -98 0
-76 -83 -85 -91 0
-76 -83 -93 -98 0
-85 -91 -93 -98 0
-68 -74 -77 -83 0
-68 -74 -85 -91 0
-68 -74 -86 -91 0
-68 -74 -93 -98 0
-68 -74 -94 -98 0
-77 -83 -85 -91 0
-77 -83 -86 -91 0
-77 -83 -93 -98 0
-77 -83 -94 -98 0
-85 -91 -93 -98 0
-85 -91 -94 -98 0
-86 -91 -93 -98 0
-86 -91 -94 -98 0
-69 -74 -78 -83 0
-69 -74 -86 -91 0
-69 -74 -87 -91 0
-69 -74 -93 -98 0
-69 -74 -94 -98 0
-69 -74 -95 -98 0
-78 -83 -86 -91 0
-78 -83 -87 -91 0
-78 -83 -93 -98 0
-78 -83 -94 -98 0
-78 -83 -95 -98 0
-86 -91 -93 -98 0
-86 -91 -94 -98 0
-86 -91 -95 -98 0
-87 -91 -93 -98 0
-87 -91 -94 -98 0
-87 -91 -95 -98 0
-70 -74 -79 -83 0
-70 -74 -87 -91 0
-70 -74 -88 -91 0
-70 -74 -94 -98 0
-70 -74 -95 -98 0
-70 -74 -96 -98 0
-79 -83 -87 -91 0
-79 -83 -88 -91 0
-79 -83 -94 -98 0
-79 -83 -95 -98 0
-79 -83 -96 -98 0
-87 -91 -94 -98 0
-87 -91 -95 -98 0
-87 -91 -96 -98 0
-88 -91 -94 -98 0
-88 -91 -95 -98 0
-88 -91 -96 -98 0
-71 -74 -80 -83 0
-71 -74 -88 -91 0
-71 -74 -89 -91 0
-71 -74 -95 -98 0
-71 -74 -96 -98 0
-80 -83 -88 -91 0
-80 -83 -89 -91 0
-80 -83 -95 -98 0
-80 -83 -96 -98 0
-88 -91 -95 -98 0
-88 -91 -96 -98 0
-89 -91 -95 -98 0
-89 -91 -96 -98 0
-72 -74 -81 -83 0
-72 -74 -89 -91 0
-72 -74 -96 -98 0
-81 -83 -89 -91 0
-81 -83 -96 -98 0
-89 -91 -96 -98 0
-67 -75 -76 -84 0
-67 -75 -85 -92 0
-67 -75 -93 -99 0
-76 -84 -85 -92 0
-76 -84 -93 -99 0
-85 -92 -93 -99 0
-68 -75 -77 -84 0
-68 -75 -85 -92 0
-68 -75 -86 -92 0
-68 -75 -93 -99 0
-68 -75 -94 -99 0
-77 -84 -85 -92 0
-77 -84 -86 -92 0
-77 -84 -93 -99 0
-77 -84 -94 -99 0
-85 -92 -93 -99 0
-85 -92 -94 -99 0
-86 -92 -93 -99 0
-86 -92 -94 -99 0
-69 -75 -78 -84 0
-69 -75 -86 -92 0
-69 -75 -87 -92 0
-69 -75 -93 -99 0
-69 -75 -94 -99 0
-69 -75 -95 -99 0
-78 -84 -86 -92 0
-78 -84 -87 -92 0
-78 -84 -93 -99 0
-78 -84 -94 -99 0
-78 -84 -95 -99 0
-86 -92 -93 -99 0
-86 -92 -94 -99 0
-86 -92 -95 -99 0
-87 -92 -93 -99 0
-87 -92 -94 -99 0
-87 -92 -95 -99 0
-70 -75 -79 -84 0
-70 -75 -87 -92 0
-70 -75 -88 -92 0
-70 -75 -94 -99 0
-70 -75 -95 -99 0
-70 -75 -96 -99 0
-79 -84 -87 -92 0
-79 -84 -88 -92 0
-79 -84 -94 -99 0
-79 -84 -95 -99 0
-79 -84 -96 -99 0
-87 -92 -94 -99 0
-87 -92 -95 -99 0
-87 -92 -96 -99 0
-88 -92 -94 -99 0
-88 -92 -95 -99 0
-88 -92 -96 -99 0
-71 -75 -80 -84 0
-71 -75 -88 -92 0
-71 -75 -89 -92 0
-71 -75 -95 -99 0
-71 -75 -96 -99 0
-80 -84 -88 -92 0
-80 -84 -89 -92 0
-80 -84 -95 -99 0
-80 -84 -96 -99 0
-88 -92 -95 -99 0
-88 -92 -96 -99 0
-89 -92 -95 -99 0
-89 -92 -96 -99 0
-72 -75 -81 -84 0
-72 -75 -89 -92 0
-72 -75 -96 -99 0
-81 -84 -89 -92 0
-81 -84 -96 -99 0
-89 -92 -96 -99 0
100 101 102 103 104 105 0
-100 -101 0
-100 -102 0
-100 -103 0
-100 -104 0
-100 -105 0
-101 -102 0
-101 -103 0
-101 -104 0
-101 -105 0
-102 -103 0
-102 -104 0
-102 -105 0
-103 -104 0
-103 -105 0
-104 -105 0
106 107 108 0
-106 -107 0
-106 -108 0
-107 -108 0
109 110 111 112 113 114 0
-109 -110 0
-109 -111 0
-109 -112 0
-109 -113 0
-109 -114 0
-110 -111 0
-110 -112 0
-110 -113 0
-110 -114 0
-111 -112 0
-111 -113 0
-111 -114 0
-112 -113 0
-112 -114 0
-113 -114 0
115 116 117 0
-115 -116 0
-115 -117 0
-116 -117 0
118 119 120 121 122 0
-118 -119 0
-118 -120 0
-118 -121 0
-118 -122 0
-119 -120 0
-119 -121 0
-119 -122 0
-120 -121 0
-120 -122 0
-121 -122 0
123 124 125 0
-123 -124 0
-123 -125 0
-124 -125 0
126 127 128 129 0
-126 -127 0
-126 -128 0
-126 -129 0
-127 -128 0
-127 -129 0
-128 -129 0
130 131 132 0
-130 -131 0
-130 -132 0
-131 -132 0
-100 -106 -109 -115 0
-100 -106 -118 -123 0
-100 -106 -126 -130 0
-109 -115 -118 -123 0
-109 -115 -126 -130 0
-118 -123 -126 -130 0
-101 -106 -110 -115 0
-101 -106 -118 -123 0
-101 -106 -119 -123 0
-101 -106 -126 -130 0
-101 -106 -127 -130 0
-110 -115 -118 -123 0
-110 -115 -119 -123 0
-110 -115 -126 -130 0
-110 -115 -127 -130 0
-118 -123 -126 -130 0
-118 -123 -127 -130 0
-119 -123 -126 -130 0
-119 -123 -127 -130 0
-102 -106 -111 -115 0
-102 -106 -119 -123 0
-102 -106 -120 -123 0
-102 -106 -126 -130 0
-102 -106 -127 -130 0
-102 -106 -128 -130 0
-111 -115 -119 -123 0
-111 -115 -120 -123 0
-111 -115 -126 -130 0
-111 -115 -127 -130 0
-111 -115 -128 -130 0
-119 -123 -126 -130 0
-119 -123 -127 -130 0
-119 -123 -128 -130 0
-120 -123 -126 -130 0
-120 -123 -127 -130 0
-120 -123 -128 -130 0
-103 -106 -112 -115 0
-103 -106 -120 -123 0
-103 -106 -121 -123 0
-103 -106 -127 -130 0
-103 -106 -128 -130 0
-103 -106 -129 -130 0
-112 -115 -120 -123 0
-112 -115 -121 -123 0
-112 -115 -127 -130 0
-112 -115 -128 -130 0
-112 -115 -129 -130 0
-120 -123 -127 -130 0
-120 -123 -128 -130 0
-120 -123 -129 -130 0
-121 -123 -127 -130 0
-121 -123 -128 -130 0
-121 -123 -129 -130 0
-104 -106 -113 -115 0
-104 -106 -121 -123 0
-104 -106 -122 -123 0
-104 -106 -128 -130 0
-104 -106 -129 -130 0
-113 -115 -121 -123 0
-113 -115 -122 -123 0
-113 -115 -128 -130 0
-113 -115 -129 -130 0
-121 -123 -128 -130 0
-121 -123 -129 -130 0
-122 -123 -128 -130 0
-122 -123 -129 -130 0
-105 -106 -114 -115 0
-105 -106 -122 -123 0
-105 -106 -129 -130 0
-114 -115 -122 -123 0
-114 -115 -129 -130 0
-122 -123 -129 -130 0
-100 -107 -109 -116 0
-100 -107 -118 -124 0
-100 -107 -126 -131 0
-109 -116 -118 -124 0
-109 -116 -126 -131 0
-118 -124 -126 -131 0
-101 -107 -110 -116 0
-101 -107 -118 -124 0
-101 -107 -119 -124 0
-101 -107 -126 -131 0
-101 -107 -127 -131 0
-110 -116 -118 -124 0
-110 -116 -119 -124 0
-110 -116 -126 -131 0
-110 -116 -127 -131 0
-118 -124 -126 -131 0
-118 -124 -127 -131 0
-119 -124 -126 -131 0
-119 -124 -127 -131 0
-102 -107 -111 -116 0
-102 -107 -119 -124 0
-102 -107 -120 -124 0
-102 -107 -126 -131 0
-102 -107 -127 -131 0
-102 -107 -128 -131 0
-111 -116 -119 -124 0
-111 -116 -120 -124 0
-111 -116 -126 -131 0
-111 -116 -127 -131 0
-111 -116 -128 -131 0
-119 -124 -126 -131 0
-119 -124 -127 -131 0
-119 -124 -128 -131 0
-120 -124 -126 -131 0
-120 -124 -127 -131 0
-120 -124 -128 -131 0
-103 -107 -112 -116 0
-103 -107 -120 -124 0
-103 -107 -121 -124 0
-103 -107 -127 -131 0
-103 -107 -128 -131 0
-103 -107 -129 -131 0
-112 -116 -120 -124 0
-112 -116 -121 -124 0
-112 -116 -127 -131 0
-112 -116 -128 -131 0
-112 -116 -129 -131 0
-120 -124 -127 -131 0
-120 -124 -128 -131 0
-120 -124 -129 -131 0
-121 -124 -127 -131 0
-121 -124 -128 -131 0
-121 -124 -129 -131 0
-104 -107 -113 -116 0
-104 -107 -121 -124 0
-104 -107 -122 -124 0
-104 -107 -128 -131 0
-104 -107 -129 -131 0
-113 -116 -121 -124 0
-113 -116 -122 -124 0
-113 -116 -128 -131 0
-113 -116 -129 -131 0
-121 -124 -128 -131 0
-121 -124 -129 -131 0
-122 -124 -128 -131 0
-122 -124 -129 -131 0
-105 -107 -114 -116 0
-105 -107 -122 -124 0
-105 -107 -129 -131 0
-114 -116 -122 -124 0
-114 -116 -129 -131 0
-122 -124 -129 -131 0
-100 -108 -109 -117 0
-100 -108 -118 -125 0
-100 -108 -126 -132 0
-109 -117 -118 -125 0
-109 -117 -126 -132 0
-118 -125 -126 -132 0
-101 -108 -110 -117 0
-101 -108 -118 -125 0
-101 -108 -119 -125 0
-101 -108 -126 -132 0
-101 -108 -127 -132 0
-110 -117 -118 -125 0
-110 -117 -119 -125 0
-110 -117 -126 -132 0
-110 -117 -127 -132 0
-118 -125 -126 -132 0
-118 -125 -127 -132 0
-119 -125 -126 -132 0
-119 -125 -127 -132 0
-102 -108 -111 -117 0
-102 -108 -119 -125 0
-102 -108 -120 -125 0
-102 -108 -126 -132 0
-102 -108 -127 -132 0
-102 -108 -128 -132 0
-111 -117 -119 -125 0
-111 -117 -120 -125 0
-111 -117 -126 -132 0
-111 -117 -127 -132 0
-111 -117 -128 -132 0
-119 -125 -126 -132 0
-119 -125 -127 -132 0
-119 -125 -128 -132 0
-120 -125 -126 -132 0
-120 -125 -127 -132 0
-120 -125 -128 -132 0
-103 -108 -112 -117 0
-103 -108 -120 -125 0
-103 -108 -121 -125 0
-103 -108 -127 -132 0
-103 -108 -128 -132 0
-103 -108 -129 -132 0
-112 -117 -120 -125 0
-112 -117 -121 -125 0
-112 -117 -127 -132 0
-112 -117 -128 -132 0
-112 -117 -129 -132 0
-120 -125 -127 -132 0
-120 -125 -128 -132 0
-120 -125 -129 -132 0
-121 -125 -127 -132 0
-121 -125 -128 -132 0
-121 -125 -129 -132 0
-104 -108 -113 -117 0
-104 -108 -121 -125 0
-104 -108 -122 -125 0
-104 -108 -128 -132 0
-104 -108 -129 -132 0
-113 -117 -121 -125 0
-113 -117 -122 -125 0
-113 -117 -128 -132 0
-113 -117 -129 -132 0
-121 -125 -128 -132 0
-121 -125 -129 -132 0
-122 -125 -128 -132 0
-122 -125 -129 -132 0
-105 -108 -114 -117 0
-105 -108 -122 -125 0
-105 -108 -129 -132 0
-114 -117 -122 -125 0
-114 -117 -129 -132 0
-122 -125 -129 -132 0
133 134 135 136 137 138 0
-133 -134 0
-133 -135 0
-133 -136 0
-133 -137 0
-133 -138 0
-134 -135 0
-134 -136 0
-134 -137 0
-134 -138 0
-135 -136 0
-135 -137 0
-135 -138 0
-136 -137 0
-136 -138 0
-137 -138 0
139 140 141 0
-139 -140 0
-139 -141 0
-140 -141 0
142 143 144 145 146 147 0
-142 -143 0
-142 -144 0
-142 -145 0
-142 -146 0
-142 -147 0
-143 -144 0
-143 -145 0
-143 -146 0
-143 -147 0
-144 -145 0
-144 -146 0
-144 -147 0
-145 -146 0
-145 -147 0
-146 -147 0
148 149 150 0
-148 -149 0
-148 -150 0
-149 -150 0
151 152 153 154 155 0
-151 -152 0
-151 -153 0
-151 -154 0
-151 -155 0
-152 -153 0
-152 -154 0
-152 -155 0
-153 -154 0
-153 -155 0
-154 -155 0
156 157 158 0
-156 -157 0
-156 -158 0
-157 -158 0
159 160 161 162 0
-159 -160 0
-159 -161 0
-159 -162 0
-160 -161 0
-160 -162 0
-161 -162 0
163 164 165 0
-163 -164 0
-163 -165 0
-164 -165 0
-133 -139 -142 -148 0
-133 -139 -151 -156 0
-133 -139 -159 -163 0
-142 -148 -151 -156 0
-142 -148 -159 -163 0
-151 -156 -159 -163 0
-134 -139 -143 -148 0
-134 -139 -151 -156 0
-134 -139 -152 -156 0
-134 -139 -159 -163 0
-134 -139 -160 -163 0
-143 -148 -151 -156 0
-143 -148 -152 -156 0
-143 -148 -159 -163 0
-143 -148 -160 -163 0
-151 -156 -159 -163 0
-151 -156 -160 -163 0
-152 -156 -159 -163 0
-152 -156 -160 -163 0
-135 -139 -144 -148 0
-135 -139 -152 -156 0
-135 -139 -153 -156 0
-135 -139 -159 -163 0
-135 -139 -160 -163 0
-135 -139 -161 -163 0
-144 -148 -152 -156 0
-144 -148 -153 -156 0
-144 -148 -159 -163 0
-144 -148 -160 -163 0
-144 -148 -161 -163 0
-152 -156 -159 -163 0
-152 -156 -160 -163 0
-152 -156 -161 -163 0
-153 -156 -159 -163 0
-153 -156 -160 -163 0
-153 -156 -161 -163 0
-136 -139 -145 -148 0
-136 -139 -153 -156 0
-136 -139 -154 -156 0
-136 -139 -160 -163 0
-136 -139 -161 -163 0
-136 -139 -162 -163 0
-145 -148 -153 -156 0
-145 -148 -154 -156 0
-145 -148 -160 -163 0
-145 -148 -161 -163 0
-145 -148 -162 -163 0
-153 -156 -160 -163 0
-153 -156 -161 -163 0
-153 -156 -162 -163 0
-154 -156 -160 -163 0
-154 -156 -161 -163 0
-154 -156 -162 -163 0
-137 -139 -146 -148 0
-137 -139 -154 -156 0
-137 -139 -155 -156 0
-137 -139 -161 -163 0
-137 -139 -162 -163 0
-146 -148 -154 -156 0
-146 -148 -155 -156 0
-146 -148 -161 -163 0
-146 -148 -162 -163 0
-154 -156 -161 -163 0
-154 -156 -162 -163 0
-155 -156 -161 -163 0
-155 -156 -162 -163 0
-138 -139 -147 -148 0
-138 -139 -155 -156 0
-138 -139 -162 -163 0
-147 -148 -155 -156 0
-147 -148 -162 -163 0
-155 -156 -162 -163 0
-133 -140 -142 -149 0
-133 -140 -151 -157 0
-133 -140 -159 -164 0
-142 -149 -151 -157 0
-142 -149 -159 -164 0
-151 -157 -159 -164 0
-134 -140 -143 -149 0
-134 -140 -151 -157 0
-134 -140 -152 -157 0
-134 -140 -159 -164 0
-134 -140 -160 -164 0
-143 -149 -151 -157 0
-143 -149 -152 -157 0
-143 -149 -159 -164 0
-143 -149 -160 -164 0
-151 -157 -159 -164 0
-151 -157 -160 -164 0
-152 -157 -159 -164 0
-152 -157 -160 -164 0
-135 -140 -144 -149 0
-135 -140 -152 -157 0
-135 -140 -153 -157 0
-135 -140 -159 -164 0
-135 -140 -160 -164 0
-135 -140 -161 -164 0
-144 -149 -152 -157 0
-144 -149 -153 -157 0
-144 -149 -159 -164 0
-144 -149 -160 -164 0
-144 -149 -161 -164 0
-152 -157 -159 -164 0
-152 -157 -160 -164 0
-152 -157 -161 -164 0
-153 -157 -159 -164 0
-153 -157 -160 -164 0
-153 -157 -161 -164 0
-136 -140 -145 -149 0
-136 -140 -153 -157 0
-136 -140 -154 -157 0
-136 -140 -160 -164 0
-136 -140 -161 -164 0
-136 -140 -162 -164 0
-145 -149 -153 -157 0
-145 -149 -154 -157 0
-145 -149 -160 -164 0
-145 -149 -161 -164 0
-145 -149 -162 -164 0
-153 -157 -160 -164 0
-153 -157 -161 -164 0
-153 -157 -162 -164 0
-154 -157 -160 -164 0
-154 -157 -161 -164 0
-154 -157 -162 -164 0
-137 -140 -146 -149 0
-137 -140 -154 -157 0
-137 -140 -155 -157 0
-137 -140 -161 -164 0
-137 -140 -162 -164 0
-146 -149 -154 -157 0
-146 -149 -155 -157 0
-146 -149 -161 -164 0
-146 -149 -162 -164 0
-154 -157 -161 -164 0
-154 -157 -162 -164 0
-155 -157 -161 -164 0
-155 -157 -162 -164 0
-138 -140 -147 -149 0
-138 -140 -155 -157 0
-138 -140 -162 -164 0
-147 -149 -155 -157 0
-147 -149 -162 -164 0
-155 -157 -162 -164 0
-133 -141 -142 -150 0
-133 -141 -151 -158 0
-133 -141 -159 -165 0
-142 -150 -151 -158 0
-142 -150 -159 -165 0
-151 -158 -159 -165 0
-134 -141 -143 -150 0
-134 -141 -151 -158 0
-134 -141 -152 -158 0
-134 -141 -159 -165 0
-134 -141 -160 -165 0
-143 -150 -151 -158 0
-143 -150 -152 -158 0
-143 -150 -159 -165 0
-143 -150 -160 -165 0
-151 -158 -159 -165 0
-151 -158 -160 -165 0
-152 -158 -159 -165 0
-152 -158 -160 -165 0
-135 -141 -144 -150 0
-135 -141 -152 -158 0
-135 -141 -153 -158 0
-135 -141 -159 -165 0
-135 -141 -160 -165 0
-135 -141 -161 -165 0
-144 -150 -152 -158 0
-144 -150 -153 -158 0
-144 -150 -159 -165 0
-144 -150 -160 -165 0
-144 -150 -161 -165 0
-152 -158 -159 -165 0
-152 -158 -160 -165 0
-152 -158 -161 -165 0
-153 -158 -159 -165 0
-153 -158 -160 -165 0
-153 -158 -161 -165 0
-136 -141 -145 -150 0
-136 -141 -153 -158 0
-136 -141 -154 -158 0
-136 -141 -160 -165 0
-136 -141 -161 -165 0
-136 -141 -162 -165 0
-145 -150 -153 -158 0
-145 -150 -154 -158 0
-145 -150 -160 -165 0
-145 -150 -161 -165 0
-145 -150 -162 -165 0
-153 -158 -160 -165 0
-153 -158 -161 -165 0
-153 -158 -162 -165 0
-154 -158 -160 -165 0
-154 -158 -161 -165 0
-154 -158 -162 -165 0
-137 -141 -146 -150 0
-137 -141 -154 -158 0
-137 -141 -155 -158 0
-137 -141 -161 -165 0
-137 -141 -162 -165 0
-146 -150 -154 -158 0
-146 -150 -155 -158 0
-146 -150 -161 -165 0
-146 -150 -162 -165 0
-154 -158 -161 -165 0
-154 -158 -162 -165 0
-155 -158 -161 -165 0
-155 -158 -162 -165 0
-138 -141 -147 -150 0
-138 -141 -155 -158 0
-138 -141 -162 -165 0
-147 -150 -155 -158 0
-147 -150 -162 -165 0
-155 -158 -162 -165 0
166 167 168 169 170 171 0
-166 -167 0
-166 -168 0
-166 -169 0
-166 -170 0
-166 -171 0
-167 -168 0
-167 -169 0
-167 -170 0
-167 -171 0
-168 -169 0
-168 -170 0
-168 -171 0
-169 -170 0
-169 -171 0
-170 -171 0
172 173 174 0
-172 -173 0
-172 -174 0
-173 -174 0
175 176 177 178 179 180 0
-175 -176 0
-175 -177 0
-175 -178 0
-175 -179 0
-175 -180 0
-176 -177 0
-176 -178 0
-176 -179 0
-176 -180 0
-177 -178 0
-177 -179 0
-177 -180 0
-178 -179 0
-178 -180 0
-179 -180 0
181 182 183 0
-181 -182 0
-181 -183 0
-182 -183 0
184 185 186 187 188 0
-184 -185 0
-184 -186 0
-184 -187 0
-184 -188 0
-185 -186 0
-185 -187 0
-185 -188 0
-186 -187 0
-186 -188 0
-187 -188 0
189 190 191 0
-189 -190 0
-189 -191 0
-190 -191 0
192 193 194 195 0
-192 -193 0
-192 -194 0
-192 -195 0
-193 -194 0
-193 -195 0
-194 -195 0
196 197 198 0
-196 -197 0
-196 -198 0
-197 -198 0
-166 -172 -175 -181 0
-166 -172 -184 -189 0
-166 -172 -192 -196 0
-175 -181 -184 -189 0
-175 -181 -192 -196 0
-184 -189 -192 -196 0
-167 -172 -176 -181 0
-167 -172 -184 -189 0
-167 -172 -185 -189 0
-167 -172 -192 -196 0
-167 -172 -193 -196 0
-176 -181 -184 -189 0
-176 -181 -185 -189 0
-176 -181 -192 -196 0
-176 -181 -193 -196 0
-184 -189 -192 -196 0
-184 -189 -193 -196 0
-185 -189 -192 -196 0
-185 -189 -193 -196 0
-168 -172 -177 -181 0
-168 -172 -185 -189 0
-168 -172 -186 -189 0
-168 -172 -192 -196 0
-168 -172 -193 -196 0
-168 -172 -194 -196 0
-177 -181 -185 -189 0
-177 -181 -186 -189 0
-177 -181 -192 -196 0
-177 -181 -193 -196 0
-177 -181 -194 -196 0
-185 -189 -192 -196 0
-185 -189 -193 -196 0
-185 -189 -194 -196 0
-186 -189 -192 -196 0
-186 -189 -193 -196 0
-186 -189 -194 -196 0
-169 -172 -178 -181 0
-169 -172 -186 -189 0
-169 -172 -187 -189 0
-169 -172 -193 -196 0
-169 -172 -194 -196 0
-169 -172 -195 -196 0
-178 -181 -186 -189 0
-178 -181 -187 -189 0
-178 -181 -193 -196 0
-178 -181 -194 -196 0
-178 -181 -195 -196 0
-186 -189 -193 -196 0
-186 -189 -194 -196 0
-186 -189 -195 -196 0
-187 -189 -193 -196 0
-187 -189 -194 -196 0
-187 -189 -195 -196 0
-170 -172 -179 -181 0
-170 -172 -187 -189 0
-170 -172 -188 -189 0
-170 -172 -194 -196 0
-170 -172 -195 -196 0
-179 -181 -187 -189 0
-179 -181 -188 -189 0
-179 -181 -194 -196 0
-179 -181 -195 -196 0
-187 -189 -194 -196 0
-187 -189 -195 -196 0
-188 -189 -194 -196 0
-188 -189 -195 -196 0
-171 -172 -180 -181 0
-171 -172 -188 -189 0
-171 -172 -195 -196 0
-180 -181 -188 -189 0
-180 -181 -195 -196 0
-188 -189 -195 -196 0
-166 -173 -175 -182 0
-166 -173 -184 -190 0
-166 -173 -192 -197 0
-175 -182 -184 -190 0
-175 -182 -192 -197 0
-184 -190 -192 -197 0
-167 -173 -176 -182 0
-167 -173 -184 -190 0
-167 -173 -185 -190 0
-167 -173 -192 -197 0
-167 -173 -193 -197 0
-176 -182 -184 -190 0
-176 -182 -185 -190 0
-176 -182 -192 -197 0
-176 -182 -193 -197 0
-184 -190 -192 -197 0
-184 -190 -193 -197 0
-185 -190 -192 -197 0
-185 -190 -193 -197 0
-168 -173 -177 -182 0
-168 -173 -185 -190 0
-168 -173 -186 -190 0
-168 -173 -192 -197 0
-168 -173 -193 -197 0
-168 -173 -194 -197 0
-177 -182 -185 -190 0
-177 -182 -186 -190 0
-177 -182 -192 -197 0
-177 -182 -193 -197 0
-177 -182 -194 -197 0
-185 -190 -192 -197 0
-185 -190 -193 -197 0
-185 -190 -194 -197 0
-186 -190 -192 -197 0
-186 -190 -193 -197 0
-186 -190 -194 -197 0
-169 -173 -178 -182 0
-169 -173 -186 -190 0
-169 -173 -187 -190 0
-169 -173 -193 -197 0
-169 -173 -194 -197 0
-169 -173 -195 -197 0
-178 -182 -186 -190 0
-178 -182 -187 -190 0
-178 -182 -193 -197 0
-178 -182 -194 -197 0
-178 -182 -195 -197 0
-186 -190 -193 -197 0
-186 -190 -194 -197 0
-186 -190 -195 -197 0
-187 -190 -193 -197 0
-187 -190 -194 -197 0
-187 -190 -195 -197 0
-170 -173 -179 -182 0
-170 -173 -187 -190 0
-170 -173 -188 -190 0
-170 -173 -194 -197 0
-170 -173 -195 -197 0
-179 -182 -187 -190 0
-179 -182 -188 -190 0
-179 -182 -194 -197 0
-179 -182 -195 -197 0
-187 -190 -194 -197 0
-187 -190 -195 -197 0
-188 -190 -194 -197 0
-188 -190 -195 -197 0
-171 -173 -180 -182 0
-171 -173 -188 -190 0
-171 -173 -195 -197 0
-180 -182 -188 -190 0
-180 -182 -195 -197 0
-188 -190 -195 -197 0
-166 -174 -175 -183 0
-166 -174 -184 -191 0
-166 -174 -192 -198 0
-175 -183 -184 -191 0
-175 -183 -192 -198 0
-184 -191 -192 -198 0
-167 -174 -176 -183 0
-167 -174 -184 -191 0
-167 -174 -185 -191 0
-167 -174 -192 -198 0
-167 -174 -193 -198 0
-176 -183 -184 -191 0
-176 -183 -185 -191 0
-176 -183 -192 -198 0
-176 -183 -193 -198 0
-184 -191 -192 -198 0
-184 -191 -193 -198 0
-185 -191 -192 -198 0
-185 -191 -193 -198 0
-168 -174 -177 -183 0
-168 -174 -185 -191 0
-168 -174 -186 -191 0
-168 -174 -192 -198 0
-168 -174 -193 -198 0
-168 -174 -194 -198 0
-177 -183 -185 -191 0
-177 -183 -186 -191 0
-177 -183 -192 -198 0
-177 -183 -193 -198 0
-177 -183 -194 -198 0
-185 -191 -192 -198 0
-185 -191 -193 -198 0
-185 -191 -194 -198 0
-186 -191 -192 -198 0
-186 -191 -193 -198 0
-186 -191 -194 -198 0
-169 -174 -178 -183 0
-169 -174 -186 -191 0
-169 -174 -187 -191 0
-169 -174 -193 -198 0
-169 -174 -194 -198 0
-169 -174 -195 -198 0
-178 -183 -186 -191 0
-178 -183 -187 -191 0
-178 -183 -193 -198 0
-178 -183 -194 -198 0
-178 -183 -195 -198 0
-186 -191 -193 -198 0
-186 -191 -194 -198 0
-186 -191 -195 -198 0
-187 -191 -193 -198 0
-187 -191 -194 -198 0
-187 -191 -195 -198 0
-170 -174 -179 -183 0
-170 -174 -187 -191 0
-170 -174 -188 -191 0
-170 -174 -194 -198 0
-170 -174 -195 -198 0
-179 -183 -187 -191 0
-179 -183 -188 -191 0
-179 -183 -194 -198 0
-179 -183 -195 -198 0
-187 -191 -194 -198 0
-187 -191 -195 -198 0
-188 -191 -194 -198 0
-188 -191 -195 -198 0
-171 -174 -180 -183 0
-171 -174 -188 -191 0
-171 -174 -195 -198 0
-180 -183 -188 -191 0
-180 -183 -195 -198 0
-188 -191 -195 -198 0
4 0
7 0
15 0
16 0
19 0
24 0
30 0
32 0
184 0
168 0
194 0
180 0
189 0
173 0
196 0
181 0
